data/lp_files/q3/71_1.lp
\ Model foo
\ LP format - for model browsing. Use MPS format to capture full model detail.
Minimize
  z
Subject To
 allocateEach[1]: x[1,1] + x[2,1] + x[3,1] + x[4,1] = 1
 allocateEach[2]: x[1,2] + x[2,2] + x[3,2] + x[4,2] = 1
 allocateEach[3]: x[1,3] + x[2,3] + x[3,3] + x[4,3] = 1
 allocateEach[4]: x[1,4] + x[2,4] + x[3,4] + x[4,4] = 1
 allocateEach[5]: x[1,5] + x[2,5] + x[3,5] + x[4,5] = 1
 allocateEach[6]: x[1,6] + x[2,6] + x[3,6] + x[4,6] = 1
 allocateEach[7]: x[1,7] + x[2,7] + x[3,7] + x[4,7] = 1
 allocateEach[8]: x[1,8] + x[2,8] + x[3,8] + x[4,8] = 1
 allocateEach[9]: x[1,9] + x[2,9] + x[3,9] + x[4,9] = 1
 allocateEach[10]: x[1,10] + x[2,10] + x[3,10] + x[4,10] = 1
 allocateEach[11]: x[1,11] + x[2,11] + x[3,11] + x[4,11] = 1
 allocateAllCash: cashProportion[1] + cashProportion[2] + cashProportion[3]
   + cashProportion[4] = 1
 findWorstP[1,2]: z + 0.0170033326532 cashProportion[1]
   - 0.0170033326532 cashProportion[2] + 0.144681357546079 x[1,1]
   + 0.0869550431884649 x[1,2] + 0.0375603618309189 x[1,3]
   + 0.1183942052642318 x[1,4] + 0.0654458273821669 x[1,5]
   + 0.0574882677004693 x[1,6] + 0.0442766782289329 x[1,7]
   + 0.0752227436577569 x[1,8] + 0.0872781065088757 x[1,9]
   + 0.1270999115826702 x[1,10] + 0.1385941644562334 x[1,11]
   - 0.144681357546079 x[2,1] - 0.0869550431884649 x[2,2]
   - 0.0375603618309189 x[2,3] - 0.1183942052642318 x[2,4]
   - 0.0654458273821669 x[2,5] - 0.0574882677004693 x[2,6]
   - 0.0442766782289329 x[2,7] - 0.0752227436577569 x[2,8]
   - 0.0872781065088757 x[2,9] - 0.1270999115826702 x[2,10]
   - 0.1385941644562334 x[2,11] >= 0
 findWorstP[1,3]: z + 0.0170033326532 cashProportion[1]
   - 0.0170033326532 cashProportion[3] + 0.144681357546079 x[1,1]
   + 0.0869550431884649 x[1,2] + 0.0375603618309189 x[1,3]
   + 0.1183942052642318 x[1,4] + 0.0654458273821669 x[1,5]
   + 0.0574882677004693 x[1,6] + 0.0442766782289329 x[1,7]
   + 0.0752227436577569 x[1,8] + 0.0872781065088757 x[1,9]
   + 0.1270999115826702 x[1,10] + 0.1385941644562334 x[1,11]
   - 0.144681357546079 x[3,1] - 0.0869550431884649 x[3,2]
   - 0.0375603618309189 x[3,3] - 0.1183942052642318 x[3,4]
   - 0.0654458273821669 x[3,5] - 0.0574882677004693 x[3,6]
   - 0.0442766782289329 x[3,7] - 0.0752227436577569 x[3,8]
   - 0.0872781065088757 x[3,9] - 0.1270999115826702 x[3,10]
   - 0.1385941644562334 x[3,11] >= 0
 findWorstP[1,4]: z + 0.0170033326532 cashProportion[1]
   - 0.0170033326532 cashProportion[4] + 0.144681357546079 x[1,1]
   + 0.0869550431884649 x[1,2] + 0.0375603618309189 x[1,3]
   + 0.1183942052642318 x[1,4] + 0.0654458273821669 x[1,5]
   + 0.0574882677004693 x[1,6] + 0.0442766782289329 x[1,7]
   + 0.0752227436577569 x[1,8] + 0.0872781065088757 x[1,9]
   + 0.1270999115826702 x[1,10] + 0.1385941644562334 x[1,11]
   - 0.144681357546079 x[4,1] - 0.0869550431884649 x[4,2]
   - 0.0375603618309189 x[4,3] - 0.1183942052642318 x[4,4]
   - 0.0654458273821669 x[4,5] - 0.0574882677004693 x[4,6]
   - 0.0442766782289329 x[4,7] - 0.0752227436577569 x[4,8]
   - 0.0872781065088757 x[4,9] - 0.1270999115826702 x[4,10]
   - 0.1385941644562334 x[4,11] >= 0
 findWorstP[2,1]: z - 0.0204662205030597 cashProportion[1]
   + 0.0204662205030597 cashProportion[2] - 0.0797977937414298 x[1,1]
   - 0.0545220114201511 x[1,2] - 0.1256830601092896 x[1,3]
   - 0.0248664579112175 x[1,4] - 0.0798182599619328 x[1,5]
   - 0.0771781175170381 x[1,6] - 0.1040093325965494 x[1,7]
   - 0.0993021018808457 x[1,8] - 0.0263195595669348 x[1,9]
   - 0.1888213503612288 x[1,10] - 0.1192157344303228 x[1,11]
   + 0.0797977937414298 x[2,1] + 0.0545220114201511 x[2,2]
   + 0.1256830601092896 x[2,3] + 0.0248664579112175 x[2,4]
   + 0.0798182599619328 x[2,5] + 0.0771781175170381 x[2,6]
   + 0.1040093325965494 x[2,7] + 0.0993021018808457 x[2,8]
   + 0.0263195595669348 x[2,9] + 0.1888213503612288 x[2,10]
   + 0.1192157344303228 x[2,11] >= 0
 findWorstP[2,3]: z + 0.0204662205030597 cashProportion[2]
   - 0.0204662205030597 cashProportion[3] + 0.0797977937414298 x[2,1]
   + 0.0545220114201511 x[2,2] + 0.1256830601092896 x[2,3]
   + 0.0248664579112175 x[2,4] + 0.0798182599619328 x[2,5]
   + 0.0771781175170381 x[2,6] + 0.1040093325965494 x[2,7]
   + 0.0993021018808457 x[2,8] + 0.0263195595669348 x[2,9]
   + 0.1888213503612288 x[2,10] + 0.1192157344303228 x[2,11]
   - 0.0797977937414298 x[3,1] - 0.0545220114201511 x[3,2]
   - 0.1256830601092896 x[3,3] - 0.0248664579112175 x[3,4]
   - 0.0798182599619328 x[3,5] - 0.0771781175170381 x[3,6]
   - 0.1040093325965494 x[3,7] - 0.0993021018808457 x[3,8]
   - 0.0263195595669348 x[3,9] - 0.1888213503612288 x[3,10]
   - 0.1192157344303228 x[3,11] >= 0
 findWorstP[2,4]: z + 0.0204662205030597 cashProportion[2]
   - 0.0204662205030597 cashProportion[4] + 0.0797977937414298 x[2,1]
   + 0.0545220114201511 x[2,2] + 0.1256830601092896 x[2,3]
   + 0.0248664579112175 x[2,4] + 0.0798182599619328 x[2,5]
   + 0.0771781175170381 x[2,6] + 0.1040093325965494 x[2,7]
   + 0.0993021018808457 x[2,8] + 0.0263195595669348 x[2,9]
   + 0.1888213503612288 x[2,10] + 0.1192157344303228 x[2,11]
   - 0.0797977937414298 x[4,1] - 0.0545220114201511 x[4,2]
   - 0.1256830601092896 x[4,3] - 0.0248664579112175 x[4,4]
   - 0.0798182599619328 x[4,5] - 0.0771781175170381 x[4,6]
   - 0.1040093325965494 x[4,7] - 0.0993021018808457 x[4,8]
   - 0.0263195595669348 x[4,9] - 0.1888213503612288 x[4,10]
   - 0.1192157344303228 x[4,11] >= 0
 findWorstP[3,1]: z - 0.01874941408081 cashProportion[1]
   + 0.01874941408081 cashProportion[3] - 0.0984344239242524 x[1,1]
   - 0.1836692603356145 x[1,2] - 0.0900534358301303 x[1,3]
   - 0.1449142214305803 x[1,4] - 0.145926689790944 x[1,5]
   - 0.0823661760569982 x[1,6] - 0.057523202399925 x[1,7]
   - 0.0884409862191807 x[1,8] - 0.0272991469016593 x[1,9]
   - 0.0191056529483454 x[1,10] - 0.04351739008156 x[1,11]
   + 0.0984344239242524 x[3,1] + 0.1836692603356145 x[3,2]
   + 0.0900534358301303 x[3,3] + 0.1449142214305803 x[3,4]
   + 0.145926689790944 x[3,5] + 0.0823661760569982 x[3,6]
   + 0.057523202399925 x[3,7] + 0.0884409862191807 x[3,8]
   + 0.0272991469016593 x[3,9] + 0.0191056529483454 x[3,10]
   + 0.04351739008156 x[3,11] >= 0
 findWorstP[3,2]: z - 0.01874941408081 cashProportion[2]
   + 0.01874941408081 cashProportion[3] - 0.0984344239242524 x[2,1]
   - 0.1836692603356145 x[2,2] - 0.0900534358301303 x[2,3]
   - 0.1449142214305803 x[2,4] - 0.145926689790944 x[2,5]
   - 0.0823661760569982 x[2,6] - 0.057523202399925 x[2,7]
   - 0.0884409862191807 x[2,8] - 0.0272991469016593 x[2,9]
   - 0.0191056529483454 x[2,10] - 0.04351739008156 x[2,11]
   + 0.0984344239242524 x[3,1] + 0.1836692603356145 x[3,2]
   + 0.0900534358301303 x[3,3] + 0.1449142214305803 x[3,4]
   + 0.145926689790944 x[3,5] + 0.0823661760569982 x[3,6]
   + 0.057523202399925 x[3,7] + 0.0884409862191807 x[3,8]
   + 0.0272991469016593 x[3,9] + 0.0191056529483454 x[3,10]
   + 0.04351739008156 x[3,11] >= 0
 findWorstP[3,4]: z + 0.01874941408081 cashProportion[3]
   - 0.01874941408081 cashProportion[4] + 0.0984344239242524 x[3,1]
   + 0.1836692603356145 x[3,2] + 0.0900534358301303 x[3,3]
   + 0.1449142214305803 x[3,4] + 0.145926689790944 x[3,5]
   + 0.0823661760569982 x[3,6] + 0.057523202399925 x[3,7]
   + 0.0884409862191807 x[3,8] + 0.0272991469016593 x[3,9]
   + 0.0191056529483454 x[3,10] + 0.04351739008156 x[3,11]
   - 0.0984344239242524 x[4,1] - 0.1836692603356145 x[4,2]
   - 0.0900534358301303 x[4,3] - 0.1449142214305803 x[4,4]
   - 0.145926689790944 x[4,5] - 0.0823661760569982 x[4,6]
   - 0.057523202399925 x[4,7] - 0.0884409862191807 x[4,8]
   - 0.0272991469016593 x[4,9] - 0.0191056529483454 x[4,10]
   - 0.04351739008156 x[4,11] >= 0
 findWorstP[4,1]: z - 0.0256607646907878 cashProportion[1]
   + 0.0256607646907878 cashProportion[4] - 0.0724403387220939 x[1,1]
   - 0.0506286887349243 x[1,2] - 0.2237362073389786 x[1,3]
   - 0.1411598665640236 x[1,4] - 0.00141134205799333 x[1,5]
   - 0.1963561714139081 x[1,6] - 0.0521683346163716 x[1,7]
   - 0.0418527072106749 x[1,8] - 0.0639466256094431 x[1,9]
   - 0.0554529124967924 x[1,10] - 0.0751860405440082 x[1,11]
   + 0.0724403387220939 x[4,1] + 0.0506286887349243 x[4,2]
   + 0.2237362073389786 x[4,3] + 0.1411598665640236 x[4,4]
   + 0.00141134205799333 x[4,5] + 0.1963561714139081 x[4,6]
   + 0.0521683346163716 x[4,7] + 0.0418527072106749 x[4,8]
   + 0.0639466256094431 x[4,9] + 0.0554529124967924 x[4,10]
   + 0.0751860405440082 x[4,11] >= 0
 findWorstP[4,2]: z - 0.0256607646907878 cashProportion[2]
   + 0.0256607646907878 cashProportion[4] - 0.0724403387220939 x[2,1]
   - 0.0506286887349243 x[2,2] - 0.2237362073389786 x[2,3]
   - 0.1411598665640236 x[2,4] - 0.00141134205799333 x[2,5]
   - 0.1963561714139081 x[2,6] - 0.0521683346163716 x[2,7]
   - 0.0418527072106749 x[2,8] - 0.0639466256094431 x[2,9]
   - 0.0554529124967924 x[2,10] - 0.0751860405440082 x[2,11]
   + 0.0724403387220939 x[4,1] + 0.0506286887349243 x[4,2]
   + 0.2237362073389786 x[4,3] + 0.1411598665640236 x[4,4]
   + 0.00141134205799333 x[4,5] + 0.1963561714139081 x[4,6]
   + 0.0521683346163716 x[4,7] + 0.0418527072106749 x[4,8]
   + 0.0639466256094431 x[4,9] + 0.0554529124967924 x[4,10]
   + 0.0751860405440082 x[4,11] >= 0
 findWorstP[4,3]: z - 0.0256607646907878 cashProportion[3]
   + 0.0256607646907878 cashProportion[4] - 0.0724403387220939 x[3,1]
   - 0.0506286887349243 x[3,2] - 0.2237362073389786 x[3,3]
   - 0.1411598665640236 x[3,4] - 0.00141134205799333 x[3,5]
   - 0.1963561714139081 x[3,6] - 0.0521683346163716 x[3,7]
   - 0.0418527072106749 x[3,8] - 0.0639466256094431 x[3,9]
   - 0.0554529124967924 x[3,10] - 0.0751860405440082 x[3,11]
   + 0.0724403387220939 x[4,1] + 0.0506286887349243 x[4,2]
   + 0.2237362073389786 x[4,3] + 0.1411598665640236 x[4,4]
   + 0.00141134205799333 x[4,5] + 0.1963561714139081 x[4,6]
   + 0.0521683346163716 x[4,7] + 0.0418527072106749 x[4,8]
   + 0.0639466256094431 x[4,9] + 0.0554529124967924 x[4,10]
   + 0.0751860405440082 x[4,11] >= 0
Bounds
 z <= 1
 -infinity <= cashProportion[1] <= 1
 -infinity <= cashProportion[2] <= 1
 -infinity <= cashProportion[3] <= 1
 -infinity <= cashProportion[4] <= 1
Binaries
 x[1,1] x[1,2] x[1,3] x[1,4] x[1,5] x[1,6] x[1,7] x[1,8] x[1,9] x[1,10]
 x[1,11] x[2,1] x[2,2] x[2,3] x[2,4] x[2,5] x[2,6] x[2,7] x[2,8] x[2,9]
 x[2,10] x[2,11] x[3,1] x[3,2] x[3,3] x[3,4] x[3,5] x[3,6] x[3,7] x[3,8]
 x[3,9] x[3,10] x[3,11] x[4,1] x[4,2] x[4,3] x[4,4] x[4,5] x[4,6] x[4,7]
 x[4,8] x[4,9] x[4,10] x[4,11]
End
