data/mps_files/q3/71_1.mps
NAME foo
ROWS
 N  OBJ
 E  allocateEach[1]
 E  allocateEach[2]
 E  allocateEach[3]
 E  allocateEach[4]
 E  allocateEach[5]
 E  allocateEach[6]
 E  allocateEach[7]
 E  allocateEach[8]
 E  allocateEach[9]
 E  allocateEach[10]
 E  allocateEach[11]
 E  allocateAllCash
 G  findWorstP[1,2]
 G  findWorstP[1,3]
 G  findWorstP[1,4]
 G  findWorstP[2,1]
 G  findWorstP[2,3]
 G  findWorstP[2,4]
 G  findWorstP[3,1]
 G  findWorstP[3,2]
 G  findWorstP[3,4]
 G  findWorstP[4,1]
 G  findWorstP[4,2]
 G  findWorstP[4,3]
COLUMNS
    z         OBJ       1
    z         findWorstP[1,2]  1
    z         findWorstP[1,3]  1
    z         findWorstP[1,4]  1
    z         findWorstP[2,1]  1
    z         findWorstP[2,3]  1
    z         findWorstP[2,4]  1
    z         findWorstP[3,1]  1
    z         findWorstP[3,2]  1
    z         findWorstP[3,4]  1
    z         findWorstP[4,1]  1
    z         findWorstP[4,2]  1
    z         findWorstP[4,3]  1
    cashProportion[1]  allocateAllCash  1
    cashProportion[1]  findWorstP[1,2]  1.7003332653200028e-02
    cashProportion[1]  findWorstP[1,3]  1.7003332653200028e-02
    cashProportion[1]  findWorstP[1,4]  1.7003332653200028e-02
    cashProportion[1]  findWorstP[2,1]  -2.0466220503059705e-02
    cashProportion[1]  findWorstP[3,1]  -1.8749414080809976e-02
    cashProportion[1]  findWorstP[4,1]  -2.5660764690787780e-02
    cashProportion[2]  allocateAllCash  1
    cashProportion[2]  findWorstP[1,2]  -1.7003332653200028e-02
    cashProportion[2]  findWorstP[2,1]  2.0466220503059705e-02
    cashProportion[2]  findWorstP[2,3]  2.0466220503059705e-02
    cashProportion[2]  findWorstP[2,4]  2.0466220503059705e-02
    cashProportion[2]  findWorstP[3,2]  -1.8749414080809976e-02
    cashProportion[2]  findWorstP[4,2]  -2.5660764690787780e-02
    cashProportion[3]  allocateAllCash  1
    cashProportion[3]  findWorstP[1,3]  -1.7003332653200028e-02
    cashProportion[3]  findWorstP[2,3]  -2.0466220503059705e-02
    cashProportion[3]  findWorstP[3,1]  1.8749414080809976e-02
    cashProportion[3]  findWorstP[3,2]  1.8749414080809976e-02
    cashProportion[3]  findWorstP[3,4]  1.8749414080809976e-02
    cashProportion[3]  findWorstP[4,3]  -2.5660764690787780e-02
    cashProportion[4]  allocateAllCash  1
    cashProportion[4]  findWorstP[1,4]  -1.7003332653200028e-02
    cashProportion[4]  findWorstP[2,4]  -2.0466220503059705e-02
    cashProportion[4]  findWorstP[3,4]  -1.8749414080809976e-02
    cashProportion[4]  findWorstP[4,1]  2.5660764690787780e-02
    cashProportion[4]  findWorstP[4,2]  2.5660764690787780e-02
    cashProportion[4]  findWorstP[4,3]  2.5660764690787780e-02
    MARKER    'MARKER'                 'INTORG'
    x[1,1]    allocateEach[1]  1
    x[1,1]    findWorstP[1,2]  1.4468135754607903e-01
    x[1,1]    findWorstP[1,3]  1.4468135754607903e-01
    x[1,1]    findWorstP[1,4]  1.4468135754607903e-01
    x[1,1]    findWorstP[2,1]  -7.9797793741429784e-02
    x[1,1]    findWorstP[3,1]  -9.8434423924252376e-02
    x[1,1]    findWorstP[4,1]  -0.0724403387220939
    x[1,2]    allocateEach[2]  1
    x[1,2]    findWorstP[1,2]  8.6955043188464934e-02
    x[1,2]    findWorstP[1,3]  8.6955043188464934e-02
    x[1,2]    findWorstP[1,4]  8.6955043188464934e-02
    x[1,2]    findWorstP[2,1]  -5.4522011420151055e-02
    x[1,2]    findWorstP[3,1]  -1.8366926033561454e-01
    x[1,2]    findWorstP[4,1]  -5.0628688734924293e-02
    x[1,3]    allocateEach[3]  1
    x[1,3]    findWorstP[1,2]  3.7560361830918862e-02
    x[1,3]    findWorstP[1,3]  3.7560361830918862e-02
    x[1,3]    findWorstP[1,4]  3.7560361830918862e-02
    x[1,3]    findWorstP[2,1]  -1.2568306010928965e-01
    x[1,3]    findWorstP[3,1]  -9.0053435830130313e-02
    x[1,3]    findWorstP[4,1]  -2.2373620733897864e-01
    x[1,4]    allocateEach[4]  1
    x[1,4]    findWorstP[1,2]  1.1839420526423179e-01
    x[1,4]    findWorstP[1,3]  1.1839420526423179e-01
    x[1,4]    findWorstP[1,4]  1.1839420526423179e-01
    x[1,4]    findWorstP[2,1]  -2.4866457911217540e-02
    x[1,4]    findWorstP[3,1]  -1.4491422143058030e-01
    x[1,4]    findWorstP[4,1]  -1.4115986656402357e-01
    x[1,5]    allocateEach[5]  1
    x[1,5]    findWorstP[1,2]  6.5445827382166907e-02
    x[1,5]    findWorstP[1,3]  6.5445827382166907e-02
    x[1,5]    findWorstP[1,4]  6.5445827382166907e-02
    x[1,5]    findWorstP[2,1]  -7.9818259961932841e-02
    x[1,5]    findWorstP[3,1]  -1.4592668979094403e-01
    x[1,5]    findWorstP[4,1]  -1.4113420579933277e-03
    x[1,6]    allocateEach[6]  1
    x[1,6]    findWorstP[1,2]  5.7488267700469289e-02
    x[1,6]    findWorstP[1,3]  5.7488267700469289e-02
    x[1,6]    findWorstP[1,4]  5.7488267700469289e-02
    x[1,6]    findWorstP[2,1]  -7.7178117517038139e-02
    x[1,6]    findWorstP[3,1]  -8.2366176056998225e-02
    x[1,6]    findWorstP[4,1]  -1.9635617141390810e-01
    x[1,7]    allocateEach[7]  1
    x[1,7]    findWorstP[1,2]  4.4276678228932873e-02
    x[1,7]    findWorstP[1,3]  4.4276678228932873e-02
    x[1,7]    findWorstP[1,4]  4.4276678228932873e-02
    x[1,7]    findWorstP[2,1]  -1.0400933259654942e-01
    x[1,7]    findWorstP[3,1]  -5.7523202399925012e-02
    x[1,7]    findWorstP[4,1]  -5.2168334616371555e-02
    x[1,8]    allocateEach[8]  1
    x[1,8]    findWorstP[1,2]  7.5222743657756913e-02
    x[1,8]    findWorstP[1,3]  7.5222743657756913e-02
    x[1,8]    findWorstP[1,4]  7.5222743657756913e-02
    x[1,8]    findWorstP[2,1]  -9.9302101880845692e-02
    x[1,8]    findWorstP[3,1]  -8.8440986219180659e-02
    x[1,8]    findWorstP[4,1]  -4.1852707210674869e-02
    x[1,9]    allocateEach[9]  1
    x[1,9]    findWorstP[1,2]  8.7278106508875727e-02
    x[1,9]    findWorstP[1,3]  8.7278106508875727e-02
    x[1,9]    findWorstP[1,4]  8.7278106508875727e-02
    x[1,9]    findWorstP[2,1]  -2.6319559566934776e-02
    x[1,9]    findWorstP[3,1]  -2.7299146901659327e-02
    x[1,9]    findWorstP[4,1]  -6.3946625609443142e-02
    x[1,10]   allocateEach[10]  1
    x[1,10]   findWorstP[1,2]  1.2709991158267020e-01
    x[1,10]   findWorstP[1,3]  1.2709991158267020e-01
    x[1,10]   findWorstP[1,4]  1.2709991158267020e-01
    x[1,10]   findWorstP[2,1]  -1.8882135036122882e-01
    x[1,10]   findWorstP[3,1]  -1.9105652948345365e-02
    x[1,10]   findWorstP[4,1]  -5.5452912496792385e-02
    x[1,11]   allocateEach[11]  1
    x[1,11]   findWorstP[1,2]  1.3859416445623343e-01
    x[1,11]   findWorstP[1,3]  1.3859416445623343e-01
    x[1,11]   findWorstP[1,4]  1.3859416445623343e-01
    x[1,11]   findWorstP[2,1]  -1.1921573443032278e-01
    x[1,11]   findWorstP[3,1]  -4.3517390081559956e-02
    x[1,11]   findWorstP[4,1]  -0.0751860405440082
    x[2,1]    allocateEach[1]  1
    x[2,1]    findWorstP[1,2]  -1.4468135754607903e-01
    x[2,1]    findWorstP[2,1]  7.9797793741429784e-02
    x[2,1]    findWorstP[2,3]  7.9797793741429784e-02
    x[2,1]    findWorstP[2,4]  7.9797793741429784e-02
    x[2,1]    findWorstP[3,2]  -9.8434423924252376e-02
    x[2,1]    findWorstP[4,2]  -0.0724403387220939
    x[2,2]    allocateEach[2]  1
    x[2,2]    findWorstP[1,2]  -8.6955043188464934e-02
    x[2,2]    findWorstP[2,1]  5.4522011420151055e-02
    x[2,2]    findWorstP[2,3]  5.4522011420151055e-02
    x[2,2]    findWorstP[2,4]  5.4522011420151055e-02
    x[2,2]    findWorstP[3,2]  -1.8366926033561454e-01
    x[2,2]    findWorstP[4,2]  -5.0628688734924293e-02
    x[2,3]    allocateEach[3]  1
    x[2,3]    findWorstP[1,2]  -3.7560361830918862e-02
    x[2,3]    findWorstP[2,1]  1.2568306010928965e-01
    x[2,3]    findWorstP[2,3]  1.2568306010928965e-01
    x[2,3]    findWorstP[2,4]  1.2568306010928965e-01
    x[2,3]    findWorstP[3,2]  -9.0053435830130313e-02
    x[2,3]    findWorstP[4,2]  -2.2373620733897864e-01
    x[2,4]    allocateEach[4]  1
    x[2,4]    findWorstP[1,2]  -1.1839420526423179e-01
    x[2,4]    findWorstP[2,1]  2.4866457911217540e-02
    x[2,4]    findWorstP[2,3]  2.4866457911217540e-02
    x[2,4]    findWorstP[2,4]  2.4866457911217540e-02
    x[2,4]    findWorstP[3,2]  -1.4491422143058030e-01
    x[2,4]    findWorstP[4,2]  -1.4115986656402357e-01
    x[2,5]    allocateEach[5]  1
    x[2,5]    findWorstP[1,2]  -6.5445827382166907e-02
    x[2,5]    findWorstP[2,1]  7.9818259961932841e-02
    x[2,5]    findWorstP[2,3]  7.9818259961932841e-02
    x[2,5]    findWorstP[2,4]  7.9818259961932841e-02
    x[2,5]    findWorstP[3,2]  -1.4592668979094403e-01
    x[2,5]    findWorstP[4,2]  -1.4113420579933277e-03
    x[2,6]    allocateEach[6]  1
    x[2,6]    findWorstP[1,2]  -5.7488267700469289e-02
    x[2,6]    findWorstP[2,1]  7.7178117517038139e-02
    x[2,6]    findWorstP[2,3]  7.7178117517038139e-02
    x[2,6]    findWorstP[2,4]  7.7178117517038139e-02
    x[2,6]    findWorstP[3,2]  -8.2366176056998225e-02
    x[2,6]    findWorstP[4,2]  -1.9635617141390810e-01
    x[2,7]    allocateEach[7]  1
    x[2,7]    findWorstP[1,2]  -4.4276678228932873e-02
    x[2,7]    findWorstP[2,1]  1.0400933259654942e-01
    x[2,7]    findWorstP[2,3]  1.0400933259654942e-01
    x[2,7]    findWorstP[2,4]  1.0400933259654942e-01
    x[2,7]    findWorstP[3,2]  -5.7523202399925012e-02
    x[2,7]    findWorstP[4,2]  -5.2168334616371555e-02
    x[2,8]    allocateEach[8]  1
    x[2,8]    findWorstP[1,2]  -7.5222743657756913e-02
    x[2,8]    findWorstP[2,1]  9.9302101880845692e-02
    x[2,8]    findWorstP[2,3]  9.9302101880845692e-02
    x[2,8]    findWorstP[2,4]  9.9302101880845692e-02
    x[2,8]    findWorstP[3,2]  -8.8440986219180659e-02
    x[2,8]    findWorstP[4,2]  -4.1852707210674869e-02
    x[2,9]    allocateEach[9]  1
    x[2,9]    findWorstP[1,2]  -8.7278106508875727e-02
    x[2,9]    findWorstP[2,1]  2.6319559566934776e-02
    x[2,9]    findWorstP[2,3]  2.6319559566934776e-02
    x[2,9]    findWorstP[2,4]  2.6319559566934776e-02
    x[2,9]    findWorstP[3,2]  -2.7299146901659327e-02
    x[2,9]    findWorstP[4,2]  -6.3946625609443142e-02
    x[2,10]   allocateEach[10]  1
    x[2,10]   findWorstP[1,2]  -1.2709991158267020e-01
    x[2,10]   findWorstP[2,1]  1.8882135036122882e-01
    x[2,10]   findWorstP[2,3]  1.8882135036122882e-01
    x[2,10]   findWorstP[2,4]  1.8882135036122882e-01
    x[2,10]   findWorstP[3,2]  -1.9105652948345365e-02
    x[2,10]   findWorstP[4,2]  -5.5452912496792385e-02
    x[2,11]   allocateEach[11]  1
    x[2,11]   findWorstP[1,2]  -1.3859416445623343e-01
    x[2,11]   findWorstP[2,1]  1.1921573443032278e-01
    x[2,11]   findWorstP[2,3]  1.1921573443032278e-01
    x[2,11]   findWorstP[2,4]  1.1921573443032278e-01
    x[2,11]   findWorstP[3,2]  -4.3517390081559956e-02
    x[2,11]   findWorstP[4,2]  -0.0751860405440082
    x[3,1]    allocateEach[1]  1
    x[3,1]    findWorstP[1,3]  -1.4468135754607903e-01
    x[3,1]    findWorstP[2,3]  -7.9797793741429784e-02
    x[3,1]    findWorstP[3,1]  9.8434423924252376e-02
    x[3,1]    findWorstP[3,2]  9.8434423924252376e-02
    x[3,1]    findWorstP[3,4]  9.8434423924252376e-02
    x[3,1]    findWorstP[4,3]  -0.0724403387220939
    x[3,2]    allocateEach[2]  1
    x[3,2]    findWorstP[1,3]  -8.6955043188464934e-02
    x[3,2]    findWorstP[2,3]  -5.4522011420151055e-02
    x[3,2]    findWorstP[3,1]  1.8366926033561454e-01
    x[3,2]    findWorstP[3,2]  1.8366926033561454e-01
    x[3,2]    findWorstP[3,4]  1.8366926033561454e-01
    x[3,2]    findWorstP[4,3]  -5.0628688734924293e-02
    x[3,3]    allocateEach[3]  1
    x[3,3]    findWorstP[1,3]  -3.7560361830918862e-02
    x[3,3]    findWorstP[2,3]  -1.2568306010928965e-01
    x[3,3]    findWorstP[3,1]  9.0053435830130313e-02
    x[3,3]    findWorstP[3,2]  9.0053435830130313e-02
    x[3,3]    findWorstP[3,4]  9.0053435830130313e-02
    x[3,3]    findWorstP[4,3]  -2.2373620733897864e-01
    x[3,4]    allocateEach[4]  1
    x[3,4]    findWorstP[1,3]  -1.1839420526423179e-01
    x[3,4]    findWorstP[2,3]  -2.4866457911217540e-02
    x[3,4]    findWorstP[3,1]  1.4491422143058030e-01
    x[3,4]    findWorstP[3,2]  1.4491422143058030e-01
    x[3,4]    findWorstP[3,4]  1.4491422143058030e-01
    x[3,4]    findWorstP[4,3]  -1.4115986656402357e-01
    x[3,5]    allocateEach[5]  1
    x[3,5]    findWorstP[1,3]  -6.5445827382166907e-02
    x[3,5]    findWorstP[2,3]  -7.9818259961932841e-02
    x[3,5]    findWorstP[3,1]  1.4592668979094403e-01
    x[3,5]    findWorstP[3,2]  1.4592668979094403e-01
    x[3,5]    findWorstP[3,4]  1.4592668979094403e-01
    x[3,5]    findWorstP[4,3]  -1.4113420579933277e-03
    x[3,6]    allocateEach[6]  1
    x[3,6]    findWorstP[1,3]  -5.7488267700469289e-02
    x[3,6]    findWorstP[2,3]  -7.7178117517038139e-02
    x[3,6]    findWorstP[3,1]  8.2366176056998225e-02
    x[3,6]    findWorstP[3,2]  8.2366176056998225e-02
    x[3,6]    findWorstP[3,4]  8.2366176056998225e-02
    x[3,6]    findWorstP[4,3]  -1.9635617141390810e-01
    x[3,7]    allocateEach[7]  1
    x[3,7]    findWorstP[1,3]  -4.4276678228932873e-02
    x[3,7]    findWorstP[2,3]  -1.0400933259654942e-01
    x[3,7]    findWorstP[3,1]  5.7523202399925012e-02
    x[3,7]    findWorstP[3,2]  5.7523202399925012e-02
    x[3,7]    findWorstP[3,4]  5.7523202399925012e-02
    x[3,7]    findWorstP[4,3]  -5.2168334616371555e-02
    x[3,8]    allocateEach[8]  1
    x[3,8]    findWorstP[1,3]  -7.5222743657756913e-02
    x[3,8]    findWorstP[2,3]  -9.9302101880845692e-02
    x[3,8]    findWorstP[3,1]  8.8440986219180659e-02
    x[3,8]    findWorstP[3,2]  8.8440986219180659e-02
    x[3,8]    findWorstP[3,4]  8.8440986219180659e-02
    x[3,8]    findWorstP[4,3]  -4.1852707210674869e-02
    x[3,9]    allocateEach[9]  1
    x[3,9]    findWorstP[1,3]  -8.7278106508875727e-02
    x[3,9]    findWorstP[2,3]  -2.6319559566934776e-02
    x[3,9]    findWorstP[3,1]  2.7299146901659327e-02
    x[3,9]    findWorstP[3,2]  2.7299146901659327e-02
    x[3,9]    findWorstP[3,4]  2.7299146901659327e-02
    x[3,9]    findWorstP[4,3]  -6.3946625609443142e-02
    x[3,10]   allocateEach[10]  1
    x[3,10]   findWorstP[1,3]  -1.2709991158267020e-01
    x[3,10]   findWorstP[2,3]  -1.8882135036122882e-01
    x[3,10]   findWorstP[3,1]  1.9105652948345365e-02
    x[3,10]   findWorstP[3,2]  1.9105652948345365e-02
    x[3,10]   findWorstP[3,4]  1.9105652948345365e-02
    x[3,10]   findWorstP[4,3]  -5.5452912496792385e-02
    x[3,11]   allocateEach[11]  1
    x[3,11]   findWorstP[1,3]  -1.3859416445623343e-01
    x[3,11]   findWorstP[2,3]  -1.1921573443032278e-01
    x[3,11]   findWorstP[3,1]  4.3517390081559956e-02
    x[3,11]   findWorstP[3,2]  4.3517390081559956e-02
    x[3,11]   findWorstP[3,4]  4.3517390081559956e-02
    x[3,11]   findWorstP[4,3]  -0.0751860405440082
    x[4,1]    allocateEach[1]  1
    x[4,1]    findWorstP[1,4]  -1.4468135754607903e-01
    x[4,1]    findWorstP[2,4]  -7.9797793741429784e-02
    x[4,1]    findWorstP[3,4]  -9.8434423924252376e-02
    x[4,1]    findWorstP[4,1]  0.0724403387220939
    x[4,1]    findWorstP[4,2]  0.0724403387220939
    x[4,1]    findWorstP[4,3]  0.0724403387220939
    x[4,2]    allocateEach[2]  1
    x[4,2]    findWorstP[1,4]  -8.6955043188464934e-02
    x[4,2]    findWorstP[2,4]  -5.4522011420151055e-02
    x[4,2]    findWorstP[3,4]  -1.8366926033561454e-01
    x[4,2]    findWorstP[4,1]  5.0628688734924293e-02
    x[4,2]    findWorstP[4,2]  5.0628688734924293e-02
    x[4,2]    findWorstP[4,3]  5.0628688734924293e-02
    x[4,3]    allocateEach[3]  1
    x[4,3]    findWorstP[1,4]  -3.7560361830918862e-02
    x[4,3]    findWorstP[2,4]  -1.2568306010928965e-01
    x[4,3]    findWorstP[3,4]  -9.0053435830130313e-02
    x[4,3]    findWorstP[4,1]  2.2373620733897864e-01
    x[4,3]    findWorstP[4,2]  2.2373620733897864e-01
    x[4,3]    findWorstP[4,3]  2.2373620733897864e-01
    x[4,4]    allocateEach[4]  1
    x[4,4]    findWorstP[1,4]  -1.1839420526423179e-01
    x[4,4]    findWorstP[2,4]  -2.4866457911217540e-02
    x[4,4]    findWorstP[3,4]  -1.4491422143058030e-01
    x[4,4]    findWorstP[4,1]  1.4115986656402357e-01
    x[4,4]    findWorstP[4,2]  1.4115986656402357e-01
    x[4,4]    findWorstP[4,3]  1.4115986656402357e-01
    x[4,5]    allocateEach[5]  1
    x[4,5]    findWorstP[1,4]  -6.5445827382166907e-02
    x[4,5]    findWorstP[2,4]  -7.9818259961932841e-02
    x[4,5]    findWorstP[3,4]  -1.4592668979094403e-01
    x[4,5]    findWorstP[4,1]  1.4113420579933277e-03
    x[4,5]    findWorstP[4,2]  1.4113420579933277e-03
    x[4,5]    findWorstP[4,3]  1.4113420579933277e-03
    x[4,6]    allocateEach[6]  1
    x[4,6]    findWorstP[1,4]  -5.7488267700469289e-02
    x[4,6]    findWorstP[2,4]  -7.7178117517038139e-02
    x[4,6]    findWorstP[3,4]  -8.2366176056998225e-02
    x[4,6]    findWorstP[4,1]  1.9635617141390810e-01
    x[4,6]    findWorstP[4,2]  1.9635617141390810e-01
    x[4,6]    findWorstP[4,3]  1.9635617141390810e-01
    x[4,7]    allocateEach[7]  1
    x[4,7]    findWorstP[1,4]  -4.4276678228932873e-02
    x[4,7]    findWorstP[2,4]  -1.0400933259654942e-01
    x[4,7]    findWorstP[3,4]  -5.7523202399925012e-02
    x[4,7]    findWorstP[4,1]  5.2168334616371555e-02
    x[4,7]    findWorstP[4,2]  5.2168334616371555e-02
    x[4,7]    findWorstP[4,3]  5.2168334616371555e-02
    x[4,8]    allocateEach[8]  1
    x[4,8]    findWorstP[1,4]  -7.5222743657756913e-02
    x[4,8]    findWorstP[2,4]  -9.9302101880845692e-02
    x[4,8]    findWorstP[3,4]  -8.8440986219180659e-02
    x[4,8]    findWorstP[4,1]  4.1852707210674869e-02
    x[4,8]    findWorstP[4,2]  4.1852707210674869e-02
    x[4,8]    findWorstP[4,3]  4.1852707210674869e-02
    x[4,9]    allocateEach[9]  1
    x[4,9]    findWorstP[1,4]  -8.7278106508875727e-02
    x[4,9]    findWorstP[2,4]  -2.6319559566934776e-02
    x[4,9]    findWorstP[3,4]  -2.7299146901659327e-02
    x[4,9]    findWorstP[4,1]  6.3946625609443142e-02
    x[4,9]    findWorstP[4,2]  6.3946625609443142e-02
    x[4,9]    findWorstP[4,3]  6.3946625609443142e-02
    x[4,10]   allocateEach[10]  1
    x[4,10]   findWorstP[1,4]  -1.2709991158267020e-01
    x[4,10]   findWorstP[2,4]  -1.8882135036122882e-01
    x[4,10]   findWorstP[3,4]  -1.9105652948345365e-02
    x[4,10]   findWorstP[4,1]  5.5452912496792385e-02
    x[4,10]   findWorstP[4,2]  5.5452912496792385e-02
    x[4,10]   findWorstP[4,3]  5.5452912496792385e-02
    x[4,11]   allocateEach[11]  1
    x[4,11]   findWorstP[1,4]  -1.3859416445623343e-01
    x[4,11]   findWorstP[2,4]  -1.1921573443032278e-01
    x[4,11]   findWorstP[3,4]  -4.3517390081559956e-02
    x[4,11]   findWorstP[4,1]  0.0751860405440082
    x[4,11]   findWorstP[4,2]  0.0751860405440082
    x[4,11]   findWorstP[4,3]  0.0751860405440082
    MARKER    'MARKER'                 'INTEND'
RHS
    RHS1      allocateEach[1]  1
    RHS1      allocateEach[2]  1
    RHS1      allocateEach[3]  1
    RHS1      allocateEach[4]  1
    RHS1      allocateEach[5]  1
    RHS1      allocateEach[6]  1
    RHS1      allocateEach[7]  1
    RHS1      allocateEach[8]  1
    RHS1      allocateEach[9]  1
    RHS1      allocateEach[10]  1
    RHS1      allocateEach[11]  1
    RHS1      allocateAllCash  1
BOUNDS
 UP BND1      z         1
 MI BND1      cashProportion[1]
 UP BND1      cashProportion[1]  1
 MI BND1      cashProportion[2]
 UP BND1      cashProportion[2]  1
 MI BND1      cashProportion[3]
 UP BND1      cashProportion[3]  1
 MI BND1      cashProportion[4]
 UP BND1      cashProportion[4]  1
 BV BND1      x[1,1]  
 BV BND1      x[1,2]  
 BV BND1      x[1,3]  
 BV BND1      x[1,4]  
 BV BND1      x[1,5]  
 BV BND1      x[1,6]  
 BV BND1      x[1,7]  
 BV BND1      x[1,8]  
 BV BND1      x[1,9]  
 BV BND1      x[1,10] 
 BV BND1      x[1,11] 
 BV BND1      x[2,1]  
 BV BND1      x[2,2]  
 BV BND1      x[2,3]  
 BV BND1      x[2,4]  
 BV BND1      x[2,5]  
 BV BND1      x[2,6]  
 BV BND1      x[2,7]  
 BV BND1      x[2,8]  
 BV BND1      x[2,9]  
 BV BND1      x[2,10] 
 BV BND1      x[2,11] 
 BV BND1      x[3,1]  
 BV BND1      x[3,2]  
 BV BND1      x[3,3]  
 BV BND1      x[3,4]  
 BV BND1      x[3,5]  
 BV BND1      x[3,6]  
 BV BND1      x[3,7]  
 BV BND1      x[3,8]  
 BV BND1      x[3,9]  
 BV BND1      x[3,10] 
 BV BND1      x[3,11] 
 BV BND1      x[4,1]  
 BV BND1      x[4,2]  
 BV BND1      x[4,3]  
 BV BND1      x[4,4]  
 BV BND1      x[4,5]  
 BV BND1      x[4,6]  
 BV BND1      x[4,7]  
 BV BND1      x[4,8]  
 BV BND1      x[4,9]  
 BV BND1      x[4,10] 
 BV BND1      x[4,11] 
ENDATA
